networks/zoo_44_93/standard/zoo_44_93.sol
<?xml version = "1.0" encoding="UTF-8" standalone="yes"?>
<CPLEXSolution version="1.2">
 <header
   problemName="networks/zoo_44_93/zoo_44_93.lp"
   solutionName="incumbent"
   solutionIndex="-1"
   objectiveValue="21"
   solutionTypeValue="3"
   solutionTypeString="primal"
   solutionStatusValue="101"
   solutionStatusString="integer optimal solution"
   solutionMethodString="mip"
   primalFeasible="1"
   dualFeasible="1"
   MIPNodes="0"
   MIPIterations="1580"
   writeLevel="3"/>
 <quality
   epInt="1.0000000000000001e-05"
   epRHS="9.9999999999999995e-07"
   maxIntInfeas="0"
   maxPrimalInfeas="0"
   maxX="4"
   maxSlack="10"/>
 <variables>
  <variable name="Y(11,13)" index="351" value="1"/>
  <variable name="Y(16,21)" index="529" value="1"/>
  <variable name="Y(19,2)" index="613" value="1"/>
  <variable name="Y(21,5)" index="684" value="1"/>
  <variable name="Y(22,8)" index="721" value="1"/>
  <variable name="Y(28,18)" index="934" value="1"/>
  <variable name="Y(30,22)" index="1006" value="1"/>
  <variable name="Y(40,8)" index="1333" value="1"/>
  <variable name="Y(45,16)" index="1510" value="1"/>
  <variable name="Y(54,20)" index="1820" value="1"/>
  <variable name="Y(55,19)" index="1853" value="1"/>
  <variable name="Y(56,12)" index="1880" value="1"/>
  <variable name="Y(57,10)" index="1912" value="1"/>
  <variable name="Y(58,2)" index="1939" value="1"/>
  <variable name="Y(59,17)" index="1987" value="1"/>
  <variable name="Y(63,14)" index="2120" value="1"/>
  <variable name="Y(67,19)" index="2261" value="1"/>
  <variable name="Y(76,21)" index="2569" value="1"/>
  <variable name="Y(84,1)" index="2822" value="1"/>
  <variable name="Y(86,4)" index="2893" value="1"/>
  <variable name="Y(88,14)" index="2970" value="1"/>
  <variable name="X(1,4,58)" index="3219" value="1"/>
  <variable name="X(1,16,45)" index="3299" value="1"/>
  <variable name="X(1,23,84)" index="3431" value="1"/>
  <variable name="X(2,3,11)" index="3451" value="1"/>
  <variable name="X(2,4,86)" index="3619" value="1"/>
  <variable name="X(2,10,58)" index="3684" value="1"/>
  <variable name="X(2,24,19)" index="3738" value="1"/>
  <variable name="X(3,2,19)" index="3831" value="1"/>
  <variable name="X(3,4,21)" index="3926" value="1"/>
  <variable name="X(3,10,28)" index="4026" value="1"/>
  <variable name="X(3,13,11)" index="4102" value="1"/>
  <variable name="X(4,1,45)" index="4229" value="1"/>
  <variable name="X(4,2,58)" index="4335" value="1"/>
  <variable name="X(4,7,21)" index="4391" value="1"/>
  <variable name="X(4,26,86)" index="4549" value="1"/>
  <variable name="X(5,8,40)" index="4596" value="1"/>
  <variable name="X(5,27,21)" index="4670" value="1"/>
  <variable name="X(6,5,40)" index="4782" value="1"/>
  <variable name="X(7,4,45)" index="4880" value="1"/>
  <variable name="X(7,8,21)" index="4949" value="1"/>
  <variable name="X(8,5,21)" index="5042" value="1"/>
  <variable name="X(8,7,40)" index="5154" value="1"/>
  <variable name="X(8,30,22)" index="5229" value="1"/>
  <variable name="X(10,2,86)" index="5386" value="1"/>
  <variable name="X(10,14,63)" index="5456" value="1"/>
  <variable name="X(10,20,28)" index="5514" value="1"/>
  <variable name="X(10,32,57)" index="5636" value="1"/>
  <variable name="X(11,22,55)" index="5727" value="1"/>
  <variable name="X(12,22,56)" index="5821" value="1"/>
  <variable name="X(13,14,30)" index="5888" value="1"/>
  <variable name="X(13,35,11)" index="5962" value="1"/>
  <variable name="X(14,10,57)" index="6101" value="1"/>
  <variable name="X(14,13,88)" index="6225" value="1"/>
  <variable name="X(14,21,30)" index="6260" value="1"/>
  <variable name="X(14,36,63)" index="6386" value="1"/>
  <variable name="X(15,1,58)" index="6474" value="1"/>
  <variable name="X(15,16,59)" index="6568" value="1"/>
  <variable name="X(16,1,84)" index="6686" value="1"/>
  <variable name="X(16,17,59)" index="6754" value="1"/>
  <variable name="X(16,38,45)" index="6833" value="1"/>
  <variable name="X(17,16,84)" index="6965" value="1"/>
  <variable name="X(17,18,28)" index="7002" value="1"/>
  <variable name="X(17,20,63)" index="7130" value="1"/>
  <variable name="X(17,39,59)" index="7219" value="1"/>
  <variable name="X(18,17,84)" index="7337" value="1"/>
  <variable name="X(18,19,67)" index="7413" value="1"/>
  <variable name="X(18,40,28)" index="7467" value="1"/>
  <variable name="X(19,18,84)" index="7616" value="1"/>
  <variable name="X(19,20,55)" index="7680" value="1"/>
  <variable name="X(19,22,67)" index="7785" value="1"/>
  <variable name="X(20,10,63)" index="7874" value="1"/>
  <variable name="X(20,17,28)" index="7932" value="1"/>
  <variable name="X(20,19,54)" index="8051" value="1"/>
  <variable name="X(20,21,16)" index="8106" value="1"/>
  <variable name="X(21,14,88)" index="8271" value="1"/>
  <variable name="X(21,20,76)" index="8352" value="1"/>
  <variable name="X(21,22,30)" index="8399" value="1"/>
  <variable name="X(21,43,16)" index="8478" value="1"/>
  <variable name="X(22,19,55)" index="8610" value="1"/>
  <variable name="X(22,21,88)" index="8736" value="1"/>
  <variable name="X(22,44,30)" index="8771" value="1"/>
  <variable name="C(11,3)" index="8873" value="1"/>
  <variable name="C(11,13)" index="8874" value="2"/>
  <variable name="C(16,21)" index="8894" value="1"/>
  <variable name="C(19,2)" index="8904" value="1"/>
  <variable name="C(21,4)" index="8908" value="1"/>
  <variable name="C(21,7)" index="8909" value="2"/>
  <variable name="C(21,8)" index="8910" value="3"/>
  <variable name="C(21,5)" index="8911" value="4"/>
  <variable name="C(28,10)" index="8932" value="1"/>
  <variable name="C(28,20)" index="8933" value="2"/>
  <variable name="C(28,17)" index="8934" value="3"/>
  <variable name="C(28,18)" index="8935" value="4"/>
  <variable name="C(30,14)" index="8942" value="1"/>
  <variable name="C(30,21)" index="8943" value="2"/>
  <variable name="C(30,22)" index="8944" value="3"/>
  <variable name="C(40,5)" index="8999" value="1"/>
  <variable name="C(40,8)" index="9000" value="2"/>
  <variable name="C(45,4)" index="9027" value="1"/>
  <variable name="C(45,1)" index="9028" value="2"/>
  <variable name="C(45,16)" index="9029" value="3"/>
  <variable name="C(55,22)" index="9077" value="1"/>
  <variable name="C(55,19)" index="9078" value="2"/>
  <variable name="C(57,10)" index="9087" value="1"/>
  <variable name="C(58,1)" index="9089" value="1"/>
  <variable name="C(58,4)" index="9090" value="2"/>
  <variable name="C(58,2)" index="9091" value="3"/>
  <variable name="C(59,16)" index="9094" value="1"/>
  <variable name="C(59,17)" index="9095" value="2"/>
  <variable name="C(63,20)" index="9108" value="1"/>
  <variable name="C(63,10)" index="9109" value="2"/>
  <variable name="C(63,14)" index="9110" value="3"/>
  <variable name="C(67,19)" index="9123" value="1"/>
  <variable name="C(84,18)" index="9177" value="1"/>
  <variable name="C(84,17)" index="9178" value="2"/>
  <variable name="C(84,16)" index="9179" value="3"/>
  <variable name="C(84,1)" index="9180" value="4"/>
  <variable name="C(86,2)" index="9190" value="1"/>
  <variable name="C(86,4)" index="9191" value="2"/>
  <variable name="C(88,21)" index="9197" value="1"/>
  <variable name="C(88,14)" index="9198" value="2"/>
 </variables>
</CPLEXSolution>
